
(set-logic BV)

(define-fun shr1 ((x (BitVec 64))) (BitVec 64) (bvlshr x #x0000000000000001))
(define-fun shr4 ((x (BitVec 64))) (BitVec 64) (bvlshr x #x0000000000000004))
(define-fun shr16 ((x (BitVec 64))) (BitVec 64) (bvlshr x #x0000000000000010))
(define-fun shl1 ((x (BitVec 64))) (BitVec 64) (bvshl x #x0000000000000001))
(define-fun if0 ((x (BitVec 64)) (y (BitVec 64)) (z (BitVec 64))) (BitVec 64) (ite (= x #x0000000000000001) y z))
(define-fun func23  ((A (BitVec 64)) (B (BitVec 64)) (C (BitVec 64)) (D (BitVec 64)) ) (BitVec 64) (bvand (bvlshr (bvlshr C  D ) B ) A ))
(define-fun func24  ((A (BitVec 64)) (B (BitVec 64)) (C (BitVec 64)) ) (BitVec 64) (bvand (bvlshr B  C ) A ))
(define-fun func25  ((A (BitVec 64)) (B (BitVec 64)) ) (BitVec 64) (bvand (bvlshr B  #x0000000000000001 ) A ))
(define-fun func26  ((A (BitVec 64)) (B (BitVec 64)) ) (BitVec 64) (bvand (bvlshr B  #x0000000000000010 ) A ))
(define-fun func27  ((A (BitVec 64)) (B (BitVec 64)) ) (BitVec 64) (bvand (bvlshr B  #x0000000000000004 ) A ))
(define-fun func28  ((A (BitVec 64)) (B (BitVec 64)) ) (BitVec 64) (bvand (bvlshr A  B ) #x0000000000000001 ))
(define-fun func29  ((A (BitVec 64)) ) (BitVec 64) (bvand A  #x0000000000000001 ))
(define-fun func30  ((A (BitVec 64)) (B (BitVec 64)) (C (BitVec 64)) (D (BitVec 64)) ) (BitVec 64) (bvlshr (bvlshr (bvlshr C  D ) B ) A ))
(define-fun func31  ((A (BitVec 64)) (B (BitVec 64)) (C (BitVec 64)) ) (BitVec 64) (bvlshr (bvlshr (bvlshr C  #x0000000000000010 ) B ) A ))
(define-fun func32  ((A (BitVec 64)) (B (BitVec 64)) (C (BitVec 64)) ) (BitVec 64) (bvlshr (bvlshr B  C ) A ))
(define-fun func33  ((A (BitVec 64)) (B (BitVec 64)) ) (BitVec 64) (bvlshr (bvlshr B  #x0000000000000010 ) A ))
(define-fun func34  ((A (BitVec 64)) (B (BitVec 64)) ) (BitVec 64) (bvlshr (bvlshr B  #x0000000000000004 ) A ))
(define-fun func35  ((A (BitVec 64)) (B (BitVec 64)) ) (BitVec 64) (bvlshr (bvlshr B  #x0000000000000001 ) A ))
(define-fun func36  ((A (BitVec 64)) (B (BitVec 64)) ) (BitVec 64) (bvlshr (bvlshr A  B ) #x0000000000000001 ))
(define-fun func37  ((A (BitVec 64)) (B (BitVec 64)) ) (BitVec 64) (bvlshr (bvlshr A  B ) #x0000000000000004 ))
(define-fun func38  ((A (BitVec 64)) (B (BitVec 64)) ) (BitVec 64) (bvlshr A  B ))
(define-fun func39  ((A (BitVec 64)) (B (BitVec 64)) (C (BitVec 64)) ) (BitVec 64) (bvlshr (bvshl B  C ) A ))
(define-fun func40  ((A (BitVec 64)) (B (BitVec 64)) ) (BitVec 64) (bvlshr (bvshl B  #x0000000000000001 ) A ))
(define-fun func41  ((A (BitVec 64)) (B (BitVec 64)) ) (BitVec 64) (bvlshr (bvshl A  B ) #x0000000000000004 ))
(define-fun func42  ((A (BitVec 64)) (B (BitVec 64)) (C (BitVec 64)) ) (BitVec 64) (bvlshr (bvadd B  C ) A ))
(define-fun func43  ((A (BitVec 64)) (B (BitVec 64)) ) (BitVec 64) (bvlshr (bvnot B ) A ))
(define-fun func44  ((A (BitVec 64)) ) (BitVec 64) (bvlshr (bvnot A ) #x0000000000000010 ))
(define-fun func45  ((A (BitVec 64)) (B (BitVec 64)) (C (BitVec 64)) ) (BitVec 64) (bvor (bvlshr B  C ) A ))
(define-fun func46  ((A (BitVec 64)) ) (BitVec 64) (bvor A  #x0000000000000001 ))
(define-fun func47  ((A (BitVec 64)) (B (BitVec 64)) (C (BitVec 64)) ) (BitVec 64) (bvshl (bvlshr B  C ) A ))
(define-fun func48  ((A (BitVec 64)) (B (BitVec 64)) ) (BitVec 64) (bvshl (bvlshr B  #x0000000000000001 ) A ))
(define-fun func49  ((A (BitVec 64)) (B (BitVec 64)) ) (BitVec 64) (bvshl (bvlshr A  B ) #x0000000000000001 ))
(define-fun func51  ((A (BitVec 64)) (B (BitVec 64)) (C (BitVec 64)) ) (BitVec 64) (bvshl (bvshl B  C ) A ))
(define-fun func52  ((A (BitVec 64)) (B (BitVec 64)) ) (BitVec 64) (bvshl (bvshl B  #x0000000000000001 ) A ))
(define-fun func53  ((A (BitVec 64)) (B (BitVec 64)) ) (BitVec 64) (bvshl (bvshl A  B ) #x0000000000000001 ))
(define-fun func54  ((A (BitVec 64)) (B (BitVec 64)) (C (BitVec 64)) ) (BitVec 64) (bvadd (bvlshr B  C ) A ))
(define-fun func55  ((A (BitVec 64)) ) (BitVec 64) (bvadd A  #x0000000000000001 ))
(define-fun func56  ((A (BitVec 64)) (B (BitVec 64)) (C (BitVec 64)) ) (BitVec 64) (bvadd (bvshl B  C ) A ))
(define-fun func57  ((A (BitVec 64)) (B (BitVec 64)) ) (BitVec 64) (bvadd (bvshl B  #x0000000000000001 ) A ))
(define-fun func58  ((A (BitVec 64)) ) (BitVec 64) (bvnot (bvshl A  #x0000000000000001 )))
(synth-fun f ( (x (BitVec 64))) (BitVec 64)
(
(Start (BitVec 64) (
   #x0000000000000000
   #x0000000000000001
   x
   (func23 Start Start Start Start)
   (func25 Start Start)
   (func28 Start Start)
   (func29 Start)
   (func31 Start Start Start)
   (func33 Start Start)
   (func34 Start Start)
   (func37 Start Start)
   (func38 Start Start)
   (func42 Start Start Start)
   (func45 Start Start Start)
   (func46 Start)
   (func47 Start Start Start)
   (func48 Start Start)
   (func51 Start Start Start)
   (func53 Start Start)
   (func54 Start Start Start)
   (func57 Start Start)
   (func58 Start)
   (bvnot Start)
   (shl1 Start)
   (shr1 Start)
   (shr4 Start)
   (shr16 Start)
   (bvand Start Start)
   (bvor Start Start)
   (bvxor Start Start)
   (bvadd Start Start)
   (if0 Start Start Start)
))
))
(constraint (= (f #xcec82f2e96e668b2) #x0000000000000001))
(constraint (= (f #xbcc0bc6852185ae6) #x0000000000000001))
(constraint (= (f #x30b43615aa983d54) #x0000000000000001))
(constraint (= (f #x40e2b4cb5a9e54f6) #x0000000000000001))
(constraint (= (f #x52555bedd494a3ee) #x0000000000000001))
(constraint (= (f #xffffffff80000002) #x0000000000000000))
(constraint (= (f #x0000000000000001) #x0000000000000000))
(constraint (= (f #x7475a26a39213808) #x0001d1d689a8e484))
(constraint (= (f #x8057eb804cf5e077) #x0002015fae0133d4))
(constraint (= (f #xbff0f265eaf4ffff) #x0002ffc3c997abd0))
(constraint (= (f #x2f0600431013128d) #x0000bc18010c404c))
(constraint (= (f #x1cd164d410aeffff) #x00007345935042b8))
(constraint (= (f #x00000000001026e1) #x0000000000000000))
(constraint (= (f #x00000000001cc6b2) #x0000000000000001))
(constraint (= (f #x0000000000124a1e) #x0000000000000001))
(constraint (= (f #x0000000000186ab0) #x0000000000000001))
(constraint (= (f #x00000000001e43e5) #x0000000000000000))
(constraint (= (f #x0000000000150ee4) #x0000000000000001))
(constraint (= (f #x00000000001affff) #x0000000000000000))
(constraint (= (f #x00000000001181fb) #x0000000000000000))
(constraint (= (f #x00000000001777fa) #x0000000000000001))
(constraint (= (f #x000000000018ffff) #x0000000000000000))
(check-synth)
